%Entrada 
% Las soluciones deben presentar la llegada del primer barco al final de los slots
% El primer barco requiere 10 slots en estado de marea "baja" en un clima "seco"

%General:
muelles = 2;
barcos = 4;

%Barcos
B_codigoBarcos = [23, 56, 78, 34, 56, 12, 9, 58, 71, 74, 72, 73];
%Tiempo máximo de espera de un barco (los valores vienen en slots, es decir un valor de 3 equivale a 15minutos)
B_tpEspera = [1, 1, 8, 9, 12, 2, 6, 8, 3, 3, 3, 3];
%Condiciones de clima a garantizar durante la estadía de cada barco. Se asume un ordenamiento [seco,húmedo,lluvia]
B_estadost = [|1,0,0|1,1,1|1,1,1|1,1,1|1,1,1|1,1,1|1,1,1|1,1,1|1,1,1|1,1,1|1,1,1|1,1,1|];
%Tiempo de descarga de un barco (los valores vienen en slots, es decir un valor de 3 equivale a 15minutos)
B_tpdescarga = [10, 4, 1, 1, 3, 7, 7, 2, 8, 10, 11, 10];
%estados de mareas para un barco dado un ordenamiento [baja,media,alta]
B_estadosm = [|1,0,0|1,1,1|1,1,1|1,1,1|1,1,1|1,1,1|1,1,1|1,1,1|1,1,1|1,1,1|1,1,1|1,1,1|];

%Muelles
M_codigoMuelles = [45, 67, 32];

%Estados del tiempo en el puerto. 1 = seco, 2 = húmedo, 3 = lluvia
P_estadost=[1,2,1,1,1,1,1,1,2,1,1,1,
            1,1,1,1,2,1,1,1,1,1,2,2,
            2,2,2,2,2,2,2,2,2,2,2,2,
            2,2,2,2,2,2,1,1,1,1,1,2,
            1,1,1,2,1,1,1,1,2,1,1,1,
            1,1,2,2,2,2,2,2,2,2,2,2,
            2,2,2,2,2,2,2,2,2,2,3,3,
            3,3,3,3,3,3,3,3,3,3,3,3,
            3,3,3,3,3,3,3,3,3,3,3,3,
            3,3,3,3,3,3,3,3,3,3,3,3,
            3,3,1,2,1,1,1,2,2,2,2,2,
            3,3,1,1,1,1,1,1,1,1,1,1];


%Estados de la marea cada 5 minutos en el puerto. 4 = baja, 5 = media, 6 = alta
P_estadosm=[4,5,4,4,4,4,4,4,4,4,4,4,
            4,4,4,4,4,4,4,4,4,4,4,4,
            4,4,5,5,5,5,5,5,5,5,5,5,
            5,5,5,5,5,5,5,5,5,5,5,5,
            5,5,5,5,5,4,4,4,4,4,4,4,
            4,4,4,4,4,4,4,4,4,4,4,4,
            5,5,5,5,5,5,5,5,5,5,5,5,
            5,5,5,5,5,5,5,5,5,6,6,6,
            6,6,6,6,6,6,6,6,6,6,6,6,
            6,6,6,6,6,6,6,6,6,6,6,6,
            6,6,6,6,6,6,6,6,6,6,6,6,
            6,4,4,4,4,4,4,4,4,4,4,4];


%Restricciones Adicionales:
horaLlegada=[|1,2|2,15|]; %Barco 1 llega desde el slot 2 (es decir en el minuto 5), Barco 2 llega en el slot 15
horasHabiles = [|1,24|1,144|1,144|]; %Muelle 1 disponible desde el slot 1 hasta 24, Muelle 2 disponible desde 1 hasta 144, Muelle 3 disponible desde 1 hasta 144,

PreasignacionHoraLlegada=0;